(declare-datatypes () ((Nat (Z) (S (p Nat)))))
(declare-datatypes () ((list (nil) (cons (head Nat) (tail list)))))
(declare-fun le (Nat Nat) Bool)
(declare-fun insort (Nat list) list)
(declare-fun sort (list) list)
(declare-fun equal (Nat Nat) Bool)
(declare-fun count (Nat list) Nat)
(assert (forall ((y Nat)) (= (le Z y) true)))
(assert (forall ((z Nat)) (= (le (S z) Z) false)))
(assert
  (forall ((z Nat) (x2 Nat)) (= (le (S z) (S x2)) (le z x2))))
(assert (forall ((x Nat)) (= (insort x nil) (cons x nil))))
(assert
  (forall ((x Nat) (z Nat) (xs list))
    (=> (= (le x z) true)
      (= (insort x (cons z xs)) (cons x (cons z xs))))))
(assert
  (forall ((x Nat) (z Nat) (xs list))
    (=> (= (le x z) false)
      (= (insort x (cons z xs)) (cons z (insort x xs))))))
(assert (= (sort nil) nil))
(assert
  (forall ((y Nat) (xs list))
    (= (sort (cons y xs)) (insort y (sort xs)))))
(assert (= (equal Z Z) true))
(assert (forall ((z Nat)) (= (equal Z (S z)) false)))
(assert (forall ((x2 Nat)) (= (equal (S x2) Z) false)))
(assert
  (forall ((x2 Nat) (y2 Nat))
    (= (equal (S x2) (S y2)) (equal x2 y2))))
(assert (forall ((x Nat)) (= (count x nil) Z)))
(assert
  (forall ((x Nat) (z Nat) (ys list))
    (=> (= (equal x z) true)
      (= (count x (cons z ys)) (S (count x ys))))))
(assert
  (forall ((x Nat) (z Nat) (ys list))
    (=> (= (equal x z) false) (= (count x (cons z ys)) (count x ys)))))
(assert-not
  (forall ((n Nat) (xs list)) (= (count n xs) (count n (sort xs)))))
(check-sat)
